(set-logic CHC_LIA)

(synth-fun state ((x_0 Bool) (x_1 Bool) (x_2 Bool) (x_3 Bool) (x_4 Bool) (x_5 Bool) (x_6 Int) (x_7 Int) (x_8 Int) (x_9 Int) (x_10 Int) (x_11 Int) (x_12 Int) (x_13 Int) (x_14 Int) (x_15 Int) (x_16 Int)) Bool)

(constraint (forall ((.s.1 Bool) (.s.0 Bool) (.s.2 Bool) (.s.3 Bool) (.s.4 Bool) (.s.5 Bool) (i Int) (x Int) (y Int) (k Int) (z Int) (j Int) (l Int) (n Int) (r Int) (t Int) (u Int)) (=> (and (not .s.1) .s.0 (not .s.2) (not .s.3) (not .s.4) (not .s.5)) (state .s.1 .s.0 .s.2 .s.3 .s.4 .s.5 i x y k z j l n r t u))))
(constraint (forall ((.s.1 Bool) (.s.0 Bool) (.s.2 Bool) (.s.3 Bool) (.s.4 Bool) (.s.5 Bool) (i Int) (x Int) (y Int) (k Int) (z Int) (j Int) (l Int) (n Int) (r Int) (t Int) (u Int) (i.next Int) (x.next Int) (y.next Int) (k.next Int) (z.next Int) (j.next Int) (l.next Int) (n.next Int) (r.next Int) (t.next Int) (u.next Int) (.s.5.next Bool) (.s.4.next Bool) (.s.3.next Bool) (.s.2.next Bool) (.s.1.next Bool) (.s.0.next Bool) (.inputVar.0 Int)) (let ((a!1 (and (and (and (not .s.1) .s.0) (not .s.2)) .s.3)) (a!3 (and (not .s.3.next) (and (not .s.2.next) (and (not .s.1.next) (not .s.0.next))))) (a!5 (and .s.3 (and (not .s.2) (and (not .s.1) (not .s.0))))) (a!7 (and (not .s.3.next) (and (not .s.2.next) (and .s.1.next (not .s.0.next))))) (a!9 (and (not .s.4) (and (not .s.3) (and .s.2 (and .s.1 .s.0))))) (a!10 (= (+ (* 2 x) (* (- 1) x.next)) 0)) (a!11 (and .s.3.next (and (not .s.2.next) (and (not .s.1.next) (not .s.0.next))))) (a!13 (and (not .s.3) (and .s.2 (and .s.1 (not .s.0))))) (a!15 (and (not .s.3.next) (and .s.2.next (and .s.1.next (not .s.0.next))))) (a!17 (and (not .s.3) (and (and (not .s.1) .s.0) .s.2))) (a!19 (and (not .s.3.next) (and .s.2.next (and (not .s.1.next) (not .s.0.next))))) (a!21 (and (not .s.3) (and .s.2 (and (not .s.1) (not .s.0))))) (a!23 (= (+ (* 2 x) z (* (- 1) z.next)) 0)) (a!24 (and (not .s.3.next) (and .s.2.next (and (not .s.1.next) .s.0.next)))) (a!26 (and (not .s.4) (and (not .s.3) (and (not .s.2) (and .s.1 .s.0))))) (a!27 (and (not .s.3.next) (and (not .s.2.next) (and (not .s.1.next) .s.0.next)))) (a!29 (and (not .s.3) (and (not .s.2) (and .s.1 (not .s.0))))) (a!31 (and (not .s.4.next) (and (not .s.3.next) (and (not .s.2.next) (and .s.1.next .s.0.next))))) (a!32 (= (+ k (* (- 1) k.next)) (- 1))) (a!33 (and (and (and (not .s.1) .s.0) (not .s.2)) (not .s.3))) (a!38 (and (not .s.3) (and (not .s.2) (and (not .s.1) (not .s.0))))) (a!41 (and (not .s.5) .s.4 (and .s.3 (and .s.2 (and .s.1 .s.0))))) (a!42 (and .s.3.next (and .s.2.next (and (not .s.1.next) (not .s.0.next))))) (a!44 (and .s.3 (and .s.2 (and .s.1 (not .s.0))))) (a!47 (and .s.3 (and (and (not .s.1) .s.0) .s.2))) (a!48 (and .s.3.next (and .s.2.next (and .s.1.next (not .s.0.next))))) (a!49 (= (+ j (* (- 1) j.next)) (- 1))) (a!51 (and .s.3 (and .s.2 (and (not .s.1) (not .s.0))))) (a!53 (and .s.3.next (and .s.2.next (and (not .s.1.next) .s.0.next)))) (a!56 (and (not .s.5) .s.4 (and .s.3 (and (not .s.2) (and .s.1 .s.0))))) (a!58 (and .s.3 (and (not .s.2) (and .s.1 (not .s.0))))) (a!61 (and .s.3.next (and (not .s.2.next) (and .s.1.next (not .s.0.next))))) (a!62 (= (+ i (* (- 1) i.next)) (- 1))) (a!65 (and .s.3.next (and (not .s.2.next) (and (not .s.1.next) .s.0.next)))) (a!67 (and (not .s.5) .s.4 (and (not .s.3) (and .s.2 (and .s.1 .s.0))))) (a!70 (and (= i i.next) (= x x.next) (= y y.next) (= k k.next) (= z z.next) (= j j.next) (= l l.next) (= n n.next) (= r r.next) (= t t.next) (= u u.next) (not .s.5.next) .s.4.next (and (not .s.3.next) (and .s.2.next (and .s.1.next .s.0.next))))) (a!73 (and (not .s.5) .s.4 (and (not .s.3) (and (not .s.2) (and .s.1 .s.0))))) (a!74 (and (not .s.5.next) (not .s.4.next) (and .s.3.next (and .s.2.next (and .s.1.next .s.0.next))))) (a!80 (and (not .s.5) (not .s.4) (and .s.3 (and .s.2 (and .s.1 .s.0))))) (a!82 (not (and (not (<= u j)) (not (<= r i))))) (a!86 (and (not .s.5) (not .s.4) (and .s.3 (and (not .s.2) (and .s.1 .s.0))))) (a!87 (= (+ x z (* (- 1) r.next)) 0)) (a!93 (= (+ y.next (* (- 1) n)) 1)) (a!97 (and (not .s.4.next) (and (not .s.3.next) (and .s.2.next (and .s.1.next .s.0.next))))) (a!99 (= (+ (* 2 x) (* (- 1) y.next) z) 0)) (a!101 (<= (+ x z (* (- 1) n)) 0))) (let ((a!2 (not (and .s.5 (and (not .s.4) a!1)))) (a!4 (and (= i i.next) (= x x.next) (= y y.next) (= k k.next) (= z z.next) (= j j.next) (= l l.next) (= n n.next) (= r r.next) (= t t.next) (= u u.next) (not .s.5.next) (and (not .s.4.next) a!3))) (a!6 (not (and .s.5 (and (not .s.4) a!5)))) (a!8 (and (= i i.next) (= x x.next) (= y y.next) (= k k.next) (= z z.next) (= j j.next) (= l l.next) (= n n.next) (= r r.next) (= t t.next) (= u u.next) (and (not .s.5.next) (and (not .s.4.next) a!7)))) (a!12 (or (not (and .s.5 a!9)) (and (= i i.next) (= y y.next) (= k k.next) (= z z.next) (= j j.next) (= l l.next) (= n n.next) (= r r.next) (= t t.next) (= u u.next) a!10 .s.5.next (and (not .s.4.next) a!11)))) (a!14 (not (and .s.5 (and (not .s.4) a!13)))) (a!16 (and (= i i.next) (= x x.next) (= y y.next) (= k k.next) (= z z.next) (= j j.next) (= l l.next) (= n n.next) (= r r.next) (= t t.next) (= u u.next) .s.5.next (and (not .s.4.next) a!15))) (a!18 (not (and .s.5 (and (not .s.4) a!17)))) (a!20 (and (= i i.next) (= x x.next) (= y y.next) (= k k.next) (= z z.next) (= j j.next) (= l l.next) (= n n.next) (= r r.next) (= t t.next) (= u u.next) (and (not .s.5.next) (and (not .s.4.next) a!19)))) (a!22 (not (and .s.5 (and (not .s.4) a!21)))) (a!28 (or (not (and .s.5 a!26)) (and (= i i.next) (= x x.next) (= y y.next) (= k k.next) (= z z.next) (= j j.next) (= l l.next) (= n n.next) (= r r.next) (= t t.next) (= u u.next) (and .s.5.next (not .s.4.next) a!27)))) (a!30 (not (and .s.5 (and (not .s.4) a!29)))) (a!34 (and (and (and a!33 (not .s.4)) .s.5) (not (<= u k)))) (a!36 (and (and (and a!33 (not .s.4)) .s.5) (<= u k))) (a!39 (not (and .s.5 (and (not .s.4) a!38)))) (a!43 (and (= i i.next) (= x x.next) (= y y.next) (= k k.next) (= z z.next) (= j j.next) (= l l.next) (= n n.next) (= r r.next) (= t t.next) (= u u.next) (not .s.5.next) .s.4.next a!42)) (a!45 (and (= i i.next) (= x x.next) (= y y.next) (= z z.next) (= j j.next) (= l l.next) (= n n.next) (= r r.next) (= t t.next) (= u u.next) a!32 (not .s.5.next) .s.4.next (and .s.3.next (and .s.2.next (and .s.1.next .s.0.next))))) (a!50 (or (not (and (not .s.5) .s.4 a!47)) (and (= i i.next) (= x x.next) (= y y.next) (= k k.next) (= z z.next) (= l l.next) (= n n.next) (= r r.next) (= t t.next) (= u u.next) (not .s.5.next) .s.4.next a!48 a!49))) (a!52 (not (and (and (not .s.5) .s.4 a!51) (not (<= u j))))) (a!54 (not (and (and (not .s.5) .s.4 a!51) (<= u j)))) (a!57 (and (= i i.next) (= x x.next) (= y y.next) (= k k.next) (= z z.next) (= j j.next) (= l l.next) (= n n.next) (= r r.next) (= t t.next) (= u u.next) (not .s.5.next) .s.4.next a!11)) (a!59 (and (= i i.next) (= x x.next) (= y y.next) (= z z.next) (= j j.next) (= l l.next) (= n n.next) (= r r.next) (= t t.next) (= u u.next) a!32 (not .s.5.next) .s.4.next (and .s.3.next (and (not .s.2.next) (and .s.1.next .s.0.next))))) (a!63 (or (not (and (not .s.5) .s.4 a!1)) (and (= x x.next) (= y y.next) (= k k.next) (= z z.next) (= j j.next) (= l l.next) (= n n.next) (= r r.next) (= t t.next) (= u u.next) (not .s.5.next) .s.4.next a!61 a!62))) (a!64 (not (and (and (not .s.5) .s.4 a!5) (not (<= r i))))) (a!66 (not (and (and (not .s.5) .s.4 a!5) (<= r i)))) (a!68 (not (and (and (not .s.5) .s.4 a!13) (not (<= k n))))) (a!69 (not (and (and (not .s.5) .s.4 a!13) (<= k n)))) (a!71 (or (not (and (not .s.5) .s.4 a!17)) (and (= i i.next) (= x x.next) (= y y.next) (= k k.next) (= z z.next) (= j j.next) (= l l.next) (= n n.next) (= r r.next) (= t t.next) (= u u.next) (and (not .s.5.next) .s.4.next a!7)))) (a!72 (or (not (and (not .s.5) .s.4 a!21)) (and (= i i.next) (= x x.next) (= y y.next) (= k k.next) (= z z.next) (= l l.next) (= n n.next) (= r r.next) (= t t.next) (= u u.next) a!49 (not .s.5.next) .s.4.next a!24))) (a!75 (and (= i i.next) (= x x.next) (= y y.next) (= z z.next) (= j j.next) (= l l.next) (= n n.next) (= r r.next) (= t t.next) (= u u.next) a!32 (not .s.5.next) .s.4.next (and (not .s.3.next) (and (not .s.2.next) (and .s.1.next .s.0.next))))) (a!77 (or (not (and (not .s.5) a!33 .s.4)) (and (= x x.next) (= y y.next) (= k k.next) (= z z.next) (= j j.next) (= l l.next) (= n n.next) (= r r.next) (= t t.next) (= u u.next) a!62 (and (not .s.5.next) .s.4.next a!7)))) (a!78 (not (and (and (not .s.5) .s.4 a!38) (not (= .inputVar.0 0))))) (a!79 (not (and (and (not .s.5) .s.4 a!38) (= .inputVar.0 0)))) (a!81 (and a!80 (and (not (<= u j)) (not (<= r i))))) (a!83 (or (not (and (not .s.5) (not .s.4) a!44)) (and (= i i.next) (= x x.next) (= y y.next) (= z z.next) (= j j.next) (= l l.next) (= n n.next) (= r r.next) (= t t.next) (= u u.next) (= k.next l) a!74))) (a!84 (or (not (and (not .s.5) (not .s.4) a!47)) (and (= i i.next) (= x x.next) (= y y.next) (= k k.next) (= z z.next) (= l l.next) (= n n.next) (= r r.next) (= t t.next) (= u u.next) (= j.next r) (not .s.5.next) (not .s.4.next) a!48))) (a!85 (or (not (and (not .s.5) (not .s.4) a!51)) (and (= x x.next) (= y y.next) (= k k.next) (= z z.next) (= j j.next) (= l l.next) (= n n.next) (= r r.next) (= t t.next) (= u u.next) (= i.next l) (not .s.5.next) (not .s.4.next) a!53))) (a!88 (and (= i i.next) (= x x.next) (= y y.next) (= k k.next) (= z z.next) (= j j.next) (= l l.next) (= n n.next) (= t t.next) (= u u.next) a!87 (not .s.5.next) (not .s.4.next) (and .s.3.next (and (not .s.2.next) (and .s.1.next .s.0.next))))) (a!90 (not (and (not .s.5) (and (not .s.4) a!1)))) (a!91 (not (and (not .s.5) (and (not .s.4) a!5)))) (a!92 (and (= i i.next) (= x x.next) (= y y.next) (= k k.next) (= z z.next) (= j j.next) (= l l.next) (= n n.next) (= r r.next) (= t t.next) (= u u.next) (not .s.5.next) (and (not .s.4.next) a!65))) (a!94 (or (not (and (not .s.5) a!9)) (and (= i i.next) (= x x.next) (= k k.next) (= z z.next) (= j j.next) (= l l.next) (= n n.next) (= r r.next) (= t t.next) (= u u.next) a!93 (not .s.5.next) (and (not .s.4.next) a!11)))) (a!95 (and (and (not .s.5) (and (not .s.4) a!13)) (<= y n))) (a!96 (and (and (not .s.5) (and (not .s.4) a!13)) (not (<= y n)))) (a!98 (not (and (not .s.5) (and (not .s.4) a!17)))) (a!102 (and (and (not .s.5) (and (not .s.4) a!21)) a!101)) (a!104 (and (and (not .s.5) (and (not .s.4) a!21)) (not a!101))) (a!105 (and (= i i.next) (= x x.next) (= y y.next) (= k k.next) (= j j.next) (= l l.next) (= n n.next) (= r r.next) (= t t.next) (= u u.next) (and (not .s.5.next) (and (not .s.4.next) a!19)) (= z.next 1))) (a!107 (and (and (not .s.5) (and (not .s.4) a!29)) (<= n x))) (a!109 (and (and (not .s.5) (and (not .s.4) a!29)) (not (<= n x)))) (a!110 (not (and (and a!33 (not .s.4)) (not .s.5)))) (a!111 (and (= i i.next) (= y y.next) (= k k.next) (= z z.next) (= j j.next) (= l l.next) (= n n.next) (= r r.next) (= t t.next) (= u u.next) (and (not .s.5.next) (and (not .s.4.next) a!7)) (= x.next 1))) (a!112 (not (and (not .s.5) (and (not .s.4) a!38))))) (let ((a!25 (or a!22 (and (= i i.next) (= x x.next) (= y y.next) (= k k.next) (= j j.next) (= l l.next) (= n n.next) (= r r.next) (= t t.next) (= u u.next) a!23 .s.5.next (and (not .s.4.next) a!24)))) (a!35 (or (not a!34) (and (= i i.next) (= x x.next) (= y y.next) (= k k.next) (= z z.next) (= j j.next) (= l l.next) (= n n.next) (= r r.next) (= t t.next) (= u u.next) .s.5.next (and (not .s.4.next) a!7)))) (a!37 (or (not a!36) (and (= i i.next) (= x x.next) (= y y.next) (= k k.next) (= z z.next) (= j j.next) (= l l.next) (= n n.next) (= r r.next) (= t t.next) (= u u.next) .s.5.next (and (not .s.4.next) a!19)))) (a!40 (or a!39 (and (= i i.next) (= x x.next) (= y y.next) (= z z.next) (= j j.next) (= l l.next) (= n n.next) (= r r.next) (= t t.next) (= u u.next) (and .s.5.next (not .s.4.next) a!27) (= k.next l)))) (a!46 (or (not (and (not .s.5) .s.4 a!44)) a!45)) (a!55 (or a!54 (and (= i i.next) (= x x.next) (= y y.next) (= k k.next) (= z z.next) (= j j.next) (= l l.next) (= n n.next) (= r r.next) (= t t.next) (= u u.next) .s.5.next (and (not .s.4.next) a!3)))) (a!60 (or (not (and (not .s.5) .s.4 a!58)) a!59)) (a!76 (or (not (and (not .s.5) .s.4 a!29)) a!75)) (a!89 (or (not (and (not .s.5) (not .s.4) a!58)) a!88)) (a!100 (or a!98 (and (= i i.next) (= x x.next) (= k k.next) (= z z.next) (= j j.next) (= l l.next) (= n n.next) (= r r.next) (= t t.next) (= u u.next) a!99 (not .s.5.next) (and (not .s.4.next) a!15)))) (a!103 (or (not a!102) (and (= i i.next) (= x x.next) (= y y.next) (= k k.next) (= z z.next) (= j j.next) (= l l.next) (= n n.next) (= r r.next) (= t t.next) (= u u.next) (not .s.5.next) (and (not .s.4.next) a!24)))) (a!106 (or (not (and (not .s.5) a!26)) a!105)) (a!108 (or (not a!107) (and (= i i.next) (= x x.next) (= y y.next) (= k k.next) (= z z.next) (= j j.next) (= l l.next) (= n n.next) (= r r.next) (= t t.next) (= u u.next) .s.5.next (and (not .s.4.next) a!65))))) (let ((a!113 (and (state .s.1 .s.0 .s.2 .s.3 .s.4 .s.5 i x y k z j l n r t u) (or a!2 a!4) (or a!6 a!8) a!12 (or a!14 a!16) (or a!18 a!20) a!25 a!28 (or a!30 (and (= i i.next) (= x x.next) (= y y.next) (= z z.next) (= j j.next) (= l l.next) (= n n.next) (= r r.next) (= t t.next) (= u u.next) .s.5.next a!31 a!32)) a!35 a!37 a!40 (or (not a!41) a!43) a!46 a!50 (or a!52 (and (= i i.next) (= x x.next) (= y y.next) (= k k.next) (= z z.next) (= j j.next) (= l l.next) (= n n.next) (= r r.next) (= t t.next) (= u u.next) (not .s.5.next) .s.4.next a!53)) a!55 (or (not a!56) a!57) a!60 a!63 (or a!64 (and (= i i.next) (= x x.next) (= y y.next) (= k k.next) (= z z.next) (= j j.next) (= l l.next) (= n n.next) (= r r.next) (= t t.next) (= u u.next) (not .s.5.next) .s.4.next a!65)) (or a!43 a!66) (or a!57 (not a!67)) (or a!16 a!68) (or a!69 a!70) a!71 a!72 (or (not a!73) (and (= i i.next) (= x x.next) (= y y.next) (= k k.next) (= z z.next) (= j j.next) (= l l.next) (= n n.next) (= r r.next) (= t t.next) (= u u.next) a!74)) a!76 a!77 (or a!78 (and (= i i.next) (= x x.next) (= y y.next) (= k k.next) (= z z.next) (= j j.next) (= l l.next) (= n n.next) (= r r.next) (= t t.next) (= u u.next) (not .s.5.next) .s.4.next a!19)) (or a!79 (and (= i i.next) (= x x.next) (= y y.next) (= k k.next) (= z z.next) (= j j.next) (= l l.next) (= n n.next) (= r r.next) (= t t.next) (= u u.next) (not .s.5.next) .s.4.next a!27)) (or (not a!81) (and (= i i.next) (= x x.next) (= y y.next) (= k k.next) (= z z.next) (= j j.next) (= l l.next) (= n n.next) (= r r.next) (= t t.next) (= u u.next) (not .s.5.next) .s.4.next a!3)) (or (not (and a!80 a!82)) (and (= i i.next) (= x x.next) (= y y.next) (= k k.next) (= z z.next) (= j j.next) (= l l.next) (= n n.next) (= r r.next) (= t t.next) (= u u.next) (not .s.5.next) .s.4.next a!15)) a!83 a!84 a!85 (or (not a!86) (and (= i i.next) (= x x.next) (= y y.next) (= k k.next) (= z z.next) (= j j.next) (= l l.next) (= n n.next) (= r r.next) (= t t.next) (= y u.next) (not .s.5.next) (not .s.4.next) a!42)) a!89 (or a!90 (and (= i i.next) (= x x.next) (= y y.next) (= k k.next) (= z z.next) (= j j.next) (= n n.next) (= r r.next) (= t t.next) (= u u.next) (= z l.next) (not .s.5.next) (not .s.4.next) a!61)) (or a!91 a!92) a!94 (or a!92 (not a!95)) (or (not a!96) (and (= i i.next) (= x x.next) (= y y.next) (= k k.next) (= z z.next) (= j j.next) (= l l.next) (= n n.next) (= r r.next) (= t t.next) (= u u.next) (not .s.5.next) a!97)) a!100 a!103 (or (not a!104) (and (= i i.next) (= x x.next) (= y y.next) (= k k.next) (= z z.next) (= j j.next) (= l l.next) (= n n.next) (= r r.next) (= t t.next) (= u u.next) .s.5.next a!97)) a!106 a!108 (or (not a!109) (and (= i i.next) (= x x.next) (= y y.next) (= k k.next) (= z z.next) (= j j.next) (= l l.next) (= n n.next) (= r r.next) (= t t.next) (= u u.next) (not .s.5.next) a!31)) (or a!110 a!111) (or a!4 a!112)))) (=> a!113 (state .s.1.next .s.0.next .s.2.next .s.3.next .s.4.next .s.5.next i.next x.next y.next k.next z.next j.next l.next n.next r.next t.next u.next))))))))
(constraint (forall ((.s.1 Bool) (.s.0 Bool) (.s.2 Bool) (.s.3 Bool) (.s.4 Bool) (.s.5 Bool) (i Int) (x Int) (y Int) (k Int) (z Int) (j Int) (l Int) (n Int) (r Int) (t Int) (u Int)) (let ((a!1 (not (not (and .s.5 (not .s.4) (not .s.3) .s.2 .s.1 (not .s.0)))))) (=> (and (state .s.1 .s.0 .s.2 .s.3 .s.4 .s.5 i x y k z j l n r t u) a!1) false))))

(check-synth)

